c Random generated cnf formula, satisfiable: true
p cnf 10 50
7 2 5 0
-7 1 -5 0
-3 -1 10 0
8 2 5 0
-9 -1 -7 0
6 -4 -10 0
6 3 2 0
2 7 1 0
10 9 7 0
3 -7 -6 0
-6 -8 2 0
-9 4 -2 0
-7 8 -10 0
3 5 -1 0
-1 -3 -7 0
-5 -9 7 0
-4 1 6 0
-1 6 4 0
4 9 -2 0
5 3 6 0
7 -1 8 0
5 9 3 0
3 7 10 0
-4 3 1 0
5 6 2 0
5 -1 9 0
7 -4 -8 0
7 9 2 0
4 -3 -10 0
-2 1 -5 0
-6 -2 3 0
6 -1 3 0
9 10 2 0
10 -7 -9 0
10 7 3 0
6 -9 -3 0
7 1 2 0
8 1 7 0
4 3 -5 0
-3 5 4 0
2 8 5 0
3 5 7 0
1 -8 -5 0
10 -6 -8 0
-4 3 -7 0
10 2 9 0
-5 9 3 0
-9 4 -6 0
-2 8 -6 0
8 -5 1 0
